NAME: dataset12
TYPE: TSP
COMMENT: 12 random locations
DIMENSION: 12
EDGE_WEIGHT_TYPE: EUC_2D
NODE_COORD_SECTION
1 36.2007168459 142.237222758
2 47.4956822107 299.8240985048
3 156.6279780086 172.9183508488
4 346.5766634523 333.2138590203
5 27.9683377309 22.6827864134
6 282.9375549692 96.7988865692
7 258.3446404342 40.7407407407
8 48.7247141601 306.2680810029
9 127.9683377309 213.9807897545
10 176.1223162004 232.6610279766
11 181.6283924843 56.6702241195
12 170.2157272095 252.4590163934
EOF
